WARNING: for repeatability, setting FPU to use double precision
============================[ Problem Statistics ]=============================
|                                                                             |
|  Number of variables:            50                                         |
|  Number of clauses:             218                                         |
|  Parse time:                   0.00 s                                       |
|                                                                             |
============================[ Search Statistics ]==============================
| Conflicts |          ORIGINAL         |          LEARNT          | Progress |
|           |    Vars  Clauses Literals |    Limit  Clauses Lit/Cl |          |
===============================================================================
===============================================================================
restarts              : 1
conflicts             : 57             (38908 /sec)
decisions             : 64             (0.00 % random) (43686 /sec)
propagations          : 736            (502389 /sec)
conflict literals     : 227            (11.67 % deleted)
Memory used           : 20.00 MB
CPU time              : 0.001465 s

UNSATISFIABLE
